
Gurobi 10.0.1 (win64) logging started Thu Oct  5 12:31:33 2023

Set parameter LogFile to value "./results//log/BA_03_makespan_heurFalse.log"
Gurobi Optimizer version 10.0.1 build v10.0.1rc0 (win64)

CPU model: AMD Ryzen 7 3700X 8-Core Processor, instruction set [SSE2|AVX|AVX2]
Thread count: 8 physical cores, 16 logical processors, using up to 16 threads

Optimize a model with 44 rows, 49 columns and 131 nonzeros
Model fingerprint: 0x125f7ddd
Variable types: 0 continuous, 49 integer (42 binary)
Coefficient statistics:
  Matrix range     [1e+00, 1e+07]
  Objective range  [1e+00, 1e+00]
  Bounds range     [1e+00, 1e+00]
  RHS range        [1e+00, 3e+07]
Found heuristic solution: objective 89.0000000
Presolve removed 26 rows and 35 columns
Presolve time: 0.00s
Presolved: 18 rows, 14 columns, 52 nonzeros
Variable types: 0 continuous, 14 integer (8 binary)

Root relaxation: objective 5.000000e+01, 4 iterations, 0.00 seconds (0.00 work units)

    Nodes    |    Current Node    |     Objective Bounds      |     Work
 Expl Unexpl |  Obj  Depth IntInf | Incumbent    BestBd   Gap | It/Node Time

     0     0   50.00000    0    4   89.00000   50.00000  43.8%     -    0s
H    0     0                      79.0000000   50.00000  36.7%     -    0s
H    0     0                      72.0000000   50.00000  30.6%     -    0s

Cutting planes:
  Implied bound: 2

Explored 1 nodes (4 simplex iterations) in 0.00 seconds (0.00 work units)
Thread count was 16 (of 16 available processors)

Solution count 3: 72 79 89 

Optimal solution found (tolerance 1.00e-04)
Best objective 7.200000000000e+01, best bound 7.200000000000e+01, gap 0.0000%
Warning: constraint name "precedence between 0,0 to 1,1 if x_[0,0,1,1,1]=0, i.e. 1,1 before 0,0" has a space
Warning: constraint name "precedence between 0,0 to 1,1 if x_[0,0,1,1,1]=0, i.e. 1,1 before 0,0" has a space
Warning: default constraint names used to write mps file
